
Gurobi 8.1.1 (mac64, Python) logging started Thu Jul 23 11:17:19 2020

Academic license - for non-commercial use only

Gurobi 8.1.1 (mac64) logging started Thu Jul 23 11:17:41 2020

Academic license - for non-commercial use only
